c Circuit verification problem 02
c Hardware property check
c Generated for SAT solver benchmarking
c Moderately difficult instance
p cnf 75 300
1 2 3 0
-1 -2 0
-1 -3 0
2 4 5 0
-2 -4 0
-2 -5 0
3 6 7 0
-3 -6 0
-3 -7 0
4 8 9 0
-4 -8 0
-4 -9 0
5 10 11 0
-5 -10 0
-5 -11 0
6 12 13 0
-6 -12 0
-6 -13 0
7 14 15 0
-7 -14 0
-7 -15 0
8 16 17 0
-8 -16 0
-8 -17 0
9 18 19 0
-9 -18 0
-9 -19 0
10 20 21 0
-10 -20 0
-10 -21 0
11 22 23 0
-11 -22 0
-11 -23 0
12 24 25 0
-12 -24 0
-12 -25 0
13 26 27 0
-13 -26 0
-13 -27 0
14 28 29 0
-14 -28 0
-14 -29 0
15 30 31 0
-15 -30 0
-15 -31 0
16 32 33 0
-16 -32 0
-16 -33 0
17 34 35 0
-17 -34 0
-17 -35 0
18 36 37 0
-18 -36 0
-18 -37 0
19 38 39 0
-19 -38 0
-19 -39 0
20 40 41 0
-20 -40 0
-20 -41 0
21 42 43 0
-21 -42 0
-21 -43 0
22 44 45 0
-22 -44 0
-22 -45 0
23 46 47 0
-23 -46 0
-23 -47 0
24 48 49 0
-24 -48 0
-24 -49 0
25 50 51 0
-25 -50 0
-25 -51 0
26 52 53 0
-26 -52 0
-26 -53 0
27 54 55 0
-27 -54 0
-27 -55 0
28 56 57 0
-28 -56 0
-28 -57 0
29 58 59 0
-29 -58 0
-29 -59 0
30 60 61 0
-30 -60 0
-30 -61 0
31 62 63 0
-31 -62 0
-31 -63 0
32 64 65 0
-32 -64 0
-32 -65 0
33 66 67 0
-33 -66 0
-33 -67 0
34 68 69 0
-34 -68 0
-34 -69 0
35 70 71 0
-35 -70 0
-35 -71 0
36 72 73 0
-36 -72 0
-36 -73 0
37 74 75 0
-37 -74 0
-37 -75 0
1 4 6 0
2 5 7 0
3 8 10 0
4 9 11 0
5 12 14 0
6 13 15 0
7 16 18 0
8 17 19 0
9 20 22 0
10 21 23 0
11 24 26 0
12 25 27 0
13 28 30 0
14 29 31 0
15 32 34 0
16 33 35 0
17 36 38 0
18 37 39 0
19 40 42 0
20 41 43 0
21 44 46 0
22 45 47 0
23 48 50 0
24 49 51 0
25 52 54 0
26 53 55 0
27 56 58 0
28 57 59 0
29 60 62 0
30 61 63 0
31 64 66 0
32 65 67 0
33 68 70 0
34 69 71 0
35 72 74 0
-1 -4 -6 0
-2 -5 -7 0
-3 -8 -10 0
-4 -9 -11 0
-5 -12 -14 0
-6 -13 -15 0
-7 -16 -18 0
-8 -17 -19 0
-9 -20 -22 0
-10 -21 -23 0
-11 -24 -26 0
-12 -25 -27 0
-13 -28 -30 0
-14 -29 -31 0
-15 -32 -34 0
-16 -33 -35 0
-17 -36 -38 0
-18 -37 -39 0
-19 -40 -42 0
-20 -41 -43 0
-21 -44 -46 0
-22 -45 -47 0
-23 -48 -50 0
-24 -49 -51 0
-25 -52 -54 0
-26 -53 -55 0
-27 -56 -58 0
-28 -57 -59 0
-29 -60 -62 0
-30 -61 -63 0
-31 -64 -66 0
-32 -65 -67 0
-33 -68 -70 0
-34 -69 -71 0
-35 -72 -74 0
1 10 20 0
2 11 21 0
3 12 22 0
4 13 23 0
5 14 24 0
6 15 25 0
7 16 26 0
8 17 27 0
9 18 28 0
10 19 29 0
11 30 40 0
12 31 41 0
13 32 42 0
14 33 43 0
15 34 44 0
16 35 45 0
17 36 46 0
18 37 47 0
19 38 48 0
20 39 49 0
21 50 60 0
22 51 61 0
23 52 62 0
24 53 63 0
25 54 64 0
26 55 65 0
27 56 66 0
28 57 67 0
29 58 68 0
30 59 69 0
31 70 75 0
32 71 74 0
33 72 73 0
-1 -10 -20 0
-2 -11 -21 0
-3 -12 -22 0
-4 -13 -23 0
-5 -14 -24 0
-6 -15 -25 0
-7 -16 -26 0
-8 -17 -27 0
-9 -18 -28 0
-11 -30 -40 0
-12 -31 -41 0
-13 -32 -42 0
-14 -33 -43 0
-15 -34 -44 0
-16 -35 -45 0
-17 -36 -46 0
-18 -37 -47 0
-19 -38 -48 0
-20 -39 -49 0
-21 -50 -60 0
-22 -51 -61 0
-23 -52 -62 0
-24 -53 -63 0
-25 -54 -64 0
-26 -55 -65 0
-27 -56 -66 0
-28 -57 -67 0
-29 -58 -68 0
-30 -59 -69 0
1 5 9 13 0
2 6 10 14 0
3 7 11 15 0
4 8 12 16 0
17 21 25 29 0
18 22 26 30 0
19 23 27 31 0
20 24 28 32 0
33 37 41 45 0
34 38 42 46 0
35 39 43 47 0
36 40 44 48 0
49 53 57 61 0
50 54 58 62 0
51 55 59 63 0
52 56 60 64 0
65 67 69 71 0
66 68 70 72 0
73 74 75 1 0
-1 -5 -9 -13 0
-2 -6 -10 -14 0
-3 -7 -11 -15 0
-4 -8 -12 -16 0
-17 -21 -25 -29 0
-18 -22 -26 -30 0
-19 -23 -27 -31 0
-20 -24 -28 -32 0
-33 -37 -41 -45 0
-34 -38 -42 -46 0
-35 -39 -43 -47 0
-36 -40 -44 -48 0
-49 -53 -57 -61 0
-50 -54 -58 -62 0
-51 -55 -59 -63 0
-52 -56 -60 -64 0
-65 -67 -69 -71 0
-66 -68 -70 -72 0
-73 -74 -75 0
5 15 25 35 45 0
6 16 26 36 46 0
7 17 27 37 47 0
8 18 28 38 48 0
9 19 29 39 49 0
10 20 30 40 50 0
11 21 31 41 51 0
12 22 32 42 52 0
13 23 33 43 53 0
14 24 34 44 54 0
55 60 65 70 75 0
56 61 66 71 1 0
57 62 67 72 2 0
58 63 68 73 3 0
59 64 69 74 4 0